120870021 1 0
80326604 2 0
69662100 3 0
122906557 3 0
110321290 2 3 0
100103247 3 2 0
58653991 -4 0
39264117 -5 0
75543856 -3 0
32289244 -6 0
76325036 7 0
57241055 -7 0
85563511 3 0
114402486 -6 0
5759732 5 0
73766014 5 0
88042608 7 0
84614727 -6 0
128902963 -3 0
105921462 5 0
56880323 -6 0
51000918 5 0
40597533 3 0
119339250 3 0
110760403 3 2 0
73840852 7 0
136003744 -3 0
80634482 5 0
104070502 -6 0
74283533 -7 0
16745945 -5 0
133403315 -6 0
69954481 -3 0
102785863 -6 0
97905904 2 0
73625676 5 0
103264131 -3 0
5465636 2 -8 0
h -8 0
82938974 -2 0
31589783 -6 0
95489851 -2 0
81547094 -3 -2 0
136299608 -2 0
90485458 2 0
45454161 -6 0
78884305 7 0
27782939 -3 0
31841136 -9 0
124779990 -7 0
105343684 7 0
35595268 -3 9 0
105951730 3 0
48246281 10 0
14957020 7 0
15600566 2 0
61336600 7 0
